100
    1   274   274
    2   447   447
    3    71    71
    4   483   483
    5    61    61
    6   425   425
    7   158   158
    8   109   109
    9    35    35
   10    14    14
   11   292   292
   12   498   498
   13    60    60
   14    34    34
   15   370   370
   16   304   304
   17    84    84
   18   495   495
   19   389   389
   20   243   243
   21     6     6
   22   400   400
   23   466   466
   24    32    32
   25   419   419
   26   112   112
   27   139   139
   28    35    35
   29   383   383
   30   336   336
   31    27    27
   32   309   309
   33   396   396
   34   235   235
   35   411   411
   36    99    99
   37   128   128
   38   427   427
   39   433   433
   40   466   466
   41   176   176
   42   454   454
   43   254   254
   44   280   280
   45   279   279
   46   177   177
   47    89    89
   48   329   329
   49   407   407
   50   370   370
   51   127   127
   52   203   203
   53   433   433
   54   457   457
   55   126   126
   56    20    20
   57   124   124
   58    23    23
   59   462   462
   60   177   177
   61    96    96
   62    90    90
   63   470   470
   64   125   125
   65   382   382
   66   189   189
   67    16    16
   68   156   156
   69   395   395
   70   180   180
   71   260   260
   72   354   354
   73   423   423
   74   446   446
   75    35    35
   76   444   444
   77   223   223
   78   451   451
   79    17    17
   80   476   476
   81   258   258
   82    17    17
   83   388   388
   84    18    18
   85   489   489
   86   102   102
   87    20    20
   88   164   164
   89   398   398
   90   339   339
   91   345   345
   92    96    96
   93   376   376
   94   409   409
   95   276   276
   96   317   317
   97   438   438
   98   109   109
   99   163   163
  100   230   230
12626
